(set-info :smt-lib-version 2.6)
(set-logic QF_S)
(set-info :source |
Generated by: Joel Day, Thorsten Ehlers, Mitja Kulczynski, Federico Mora, Florin Manea, Dirk Nowotka, Danny Poulsen, Zhengyang Lu
Application: Test WOORPJE
Target solver: WOORPJE
Publications: Day, J. D., Ehlers, T., Kulczynski, M., Manea, F., Nowotka, D., & Poulsen, D. B. (2019). On solving word equations using SAT. In RP 2019
Description: Transoformed and expanded from Track02
|)
(set-info :license "https://creativecommons.org/licenses/by/4.0/")
(set-info :category "random")
(set-info :status unknown)

(declare-fun S () String)
(declare-fun J () String)
(declare-fun T () String)
(declare-fun R () String)
(declare-fun K () String)
(declare-fun G () String)
(declare-fun N () String)
(declare-fun M () String)
(declare-fun Z () String)
(declare-fun P () String)
(declare-fun W () String)
(assert (= (str.++  J G J J "aaa" K J J J J "aa" J G J J "aaa" K J J J J "ab" K N M "aba" P S "b" W "ab")  (str.++  "a" J J G G G G "a" J J "a" J "a" M N N N M N N N "b" R R R R "b" T T T T "b" Z Z "baa") ))
(check-sat)

(exit)
